/*********************************************
 * OPL 12.6.0.0 Data
 * Author: Walid & Haidar
 * Creation Date: Nov 15, 2019 at 9:37:04 AM
 *********************************************/
n=5;

 d=[

[0.0, 20.66894530449002, 41.13071115358936, 33.23098102674672, 113.87585169824197],
[ 20.66894530449002, 0.0, 47.03894662936236, 53.530113020616724, 118.03844839712187],
[ 41.13071115358936, 47.03894662936236, 0.0, 57.457766228770154, 154.5717859119186],
[ 33.23098102674672, 53.530113020616724, 57.457766228770154, 0.0, 106.9420857286784],
[ 113.87585169824197, 118.03844839712187, 154.5717859119186, 106.9420857286784, 0.0]

];